MoS2
&INPUTPH
    prefix = 'MoS2'
    outdir = 'work'

    fildyn = 'dyn'
    fildvscf = 'dvscf'

    tr2_ph = 1e-21

    ldisp = .true.

    nq1 = 12
    nq2 = 12
    nq3 = 1

    ! for 5 bands:
    !cdfpt_min = -5.75
    !cdfpt_max = 0.09

    !qplot = .true.
    !electron_phonon = 'simple'
    !ibndprt = 13
/
! for reference along G-M-K-G:
!57
!0.0000000000 0.0000000000 0.0 1
!0.0000000000 0.0240562612 0.0 1
!0.0000000000 0.0481125224 0.0 1
!0.0000000000 0.0721687836 0.0 1
!0.0000000000 0.0962250449 0.0 1
!0.0000000000 0.1202813061 0.0 1
!0.0000000000 0.1443375673 0.0 1
!0.0000000000 0.1683938285 0.0 1
!0.0000000000 0.1924500897 0.0 1
!0.0000000000 0.2165063509 0.0 1
!0.0000000000 0.2405626122 0.0 1
!0.0000000000 0.2646188734 0.0 1
!0.0000000000 0.2886751346 0.0 1
!0.0000000000 0.3127313958 0.0 1
!0.0000000000 0.3367876570 0.0 1
!0.0000000000 0.3608439182 0.0 1
!0.0000000000 0.3849001795 0.0 1
!0.0000000000 0.4089564407 0.0 1
!0.0000000000 0.4330127019 0.0 1
!0.0000000000 0.4570689631 0.0 1
!0.0000000000 0.4811252243 0.0 1
!0.0000000000 0.5051814855 0.0 1
!0.0000000000 0.5292377468 0.0 1
!0.0000000000 0.5532940080 0.0 1
!0.0000000000 0.5773502692 0.0 1
!0.0208333333 0.5773502692 0.0 1
!0.0416666667 0.5773502692 0.0 1
!0.0625000000 0.5773502692 0.0 1
!0.0833333333 0.5773502692 0.0 1
!0.1041666667 0.5773502692 0.0 1
!0.1250000000 0.5773502692 0.0 1
!0.1458333333 0.5773502692 0.0 1
!0.1666666667 0.5773502692 0.0 1
!0.1875000000 0.5773502692 0.0 1
!0.2083333333 0.5773502692 0.0 1
!0.2291666667 0.5773502692 0.0 1
!0.2500000000 0.5773502692 0.0 1
!0.2708333333 0.5773502692 0.0 1
!0.2916666667 0.5773502692 0.0 1
!0.3125000000 0.5773502692 0.0 1
!0.3333333333 0.5773502692 0.0 1
!0.3125000000 0.5412658774 0.0 1
!0.2916666667 0.5051814855 0.0 1
!0.2708333333 0.4690970937 0.0 1
!0.2500000000 0.4330127019 0.0 1
!0.2291666667 0.3969283101 0.0 1
!0.2083333333 0.3608439182 0.0 1
!0.1875000000 0.3247595264 0.0 1
!0.1666666667 0.2886751346 0.0 1
!0.1458333333 0.2525907428 0.0 1
!0.1250000000 0.2165063509 0.0 1
!0.1041666667 0.1804219591 0.0 1
!0.0833333333 0.1443375673 0.0 1
!0.0625000000 0.1082531755 0.0 1
!0.0416666667 0.0721687836 0.0 1
!0.0208333333 0.0360843918 0.0 1
!0.0000000000 0.0000000000 0.0 1

! for reference along K-G-M:
!42
!0.3333333333 0.5773502692 0.0 1
!0.3125000000 0.5412658774 0.0 1
!0.2916666667 0.5051814855 0.0 1
!0.2708333333 0.4690970937 0.0 1
!0.2500000000 0.4330127019 0.0 1
!0.2291666667 0.3969283101 0.0 1
!0.2083333333 0.3608439182 0.0 1
!0.1875000000 0.3247595264 0.0 1
!0.1666666667 0.2886751346 0.0 1
!0.1458333333 0.2525907428 0.0 1
!0.1250000000 0.2165063509 0.0 1
!0.1041666667 0.1804219591 0.0 1
!0.0833333333 0.1443375673 0.0 1
!0.0625000000 0.1082531755 0.0 1
!0.0416666667 0.0721687836 0.0 1
!0.0208333333 0.0360843918 0.0 1
!0.0020833333 0.0036084392 0.0 1
!0.0000000000 0.0024056261 0.0 1
!0.0000000000 0.0240562612 0.0 1
!0.0000000000 0.0481125224 0.0 1
!0.0000000000 0.0721687836 0.0 1
!0.0000000000 0.0962250449 0.0 1
!0.0000000000 0.1202813061 0.0 1
!0.0000000000 0.1443375673 0.0 1
!0.0000000000 0.1683938285 0.0 1
!0.0000000000 0.1924500897 0.0 1
!0.0000000000 0.2165063509 0.0 1
!0.0000000000 0.2405626122 0.0 1
!0.0000000000 0.2646188734 0.0 1
!0.0000000000 0.2886751346 0.0 1
!0.0000000000 0.3127313958 0.0 1
!0.0000000000 0.3367876570 0.0 1
!0.0000000000 0.3608439182 0.0 1
!0.0000000000 0.3849001795 0.0 1
!0.0000000000 0.4089564407 0.0 1
!0.0000000000 0.4330127019 0.0 1
!0.0000000000 0.4570689631 0.0 1
!0.0000000000 0.4811252243 0.0 1
!0.0000000000 0.5051814855 0.0 1
!0.0000000000 0.5292377468 0.0 1
!0.0000000000 0.5532940080 0.0 1
!0.0000000000 0.5773502692 0.0 1
