TaS2
&INPUTPH
    prefix = 'TaS2'
    outdir = 'work'

    fildyn = 'ref'
    fildvscf = 'dvscf'

    tr2_ph = 1e-12 ! 1e-21

    bare = .true.
    ldisp = .true.
    qplot = .true.

    electron_phonon = 'simple'
    ibndprt = 13
/
7
0.0000000000 0.0009622504 0.0 1
0.0000000000 0.0962250449 0.0 1
0.0000000000 0.1924500897 0.0 1
0.0000000000 0.2886751346 0.0 1
0.0000000000 0.3849001795 0.0 1
0.0000000000 0.4811252243 0.0 1
0.0000000000 0.5773502692 0.0 1
